
Gurobi 13.0.1 (linux64) logging started Fri Mar 27 11:01:07 2026

Set parameter LogFile to value "logs_sparse/100B_6F_robust_gamma_0d75_theta_0d05199999999999999_2026-03-27_11h00m11s.log"
Set parameter MIPGap to value 0.005
Set parameter OptimalityTol to value 0.005
Gurobi Optimizer version 13.0.1 build v13.0.1rc0 (linux64 - "Linux Mint 22")

CPU model: 12th Gen Intel(R) Core(TM) i7-12700, instruction set [SSE2|AVX|AVX2]
Thread count: 20 physical cores, 20 logical processors, using up to 20 threads

Non-default parameters:
TimeLimit  3600
SoftMemLimit  12
MIPGap  0.005
OptimalityTol  0.005

Optimize a model with 120301 rows, 3061121 columns and 9258486 nonzeros (Max)
Model fingerprint: 0xc644c515
Model has 2970111 linear objective coefficients
Variable types: 31121 continuous, 3030000 integer (3030000 binary)
Coefficient statistics:
  Matrix range     [3e-05, 1e+05]
  Objective range  [1e+00, 3e+03]
  Bounds range     [1e+00, 1e+05]
  RHS range        [1e+00, 1e+05]

Presolve removed 78617 rows and 2622635 columns
Presolve time: 1.58s
Presolved: 41684 rows, 438486 columns, 1406966 nonzeros
Variable types: 10841 continuous, 427645 integer (427645 binary)
Found heuristic solution: objective -4.57980e+08
Performing another presolve...
Presolve added 0 rows and 10 columns
Presolve removed 20 rows and 0 columns
Presolve time: 2.06s
Deterministic concurrent LP optimizer: primal simplex, dual simplex, and barrier
Showing barrier log only...

Root barrier log...

Ordering time: 0.91s

Barrier statistics:
 AA' NZ     : 7.117e+05
 Factor NZ  : 5.951e+06 (roughly 240 MB of memory)
 Factor Ops : 1.649e+09 (less than 1 second per iteration)
 Threads    : 18

                  Objective                Residual
Iter       Primal          Dual         Primal    Dual     Compl     Time
   0  -3.11014643e+12  1.78674741e+09  5.97e+07 1.02e+03  2.09e+07     7s
   1  -3.94182244e+11  5.35842439e+09  7.59e+06 2.48e-11  2.73e+06     8s
   2  -1.35067676e+10  3.27336889e+09  2.59e+05 8.07e-11  9.66e+04     8s
   3  -2.01449307e+08  2.45457156e+09  5.51e+03 5.25e-11  4.62e+03     8s
   4   1.74437749e+08  1.17749103e+09  1.08e+03 5.14e-11  1.36e+03     8s
   5   2.28225099e+08  8.15858639e+08  4.84e+02 5.96e-11  7.53e+02     8s
   6   2.58975104e+08  4.97542292e+08  1.38e+02 4.73e-11  2.91e+02     8s
   7   2.65790523e+08  3.58419775e+08  6.63e+01 4.91e-11  1.14e+02     8s
   8   2.68833350e+08  3.22633521e+08  3.68e+01 5.63e-11  6.59e+01     8s
   9   2.70878929e+08  2.99117217e+08  1.84e+01 1.77e-10  3.43e+01     8s
  10   2.71661547e+08  2.82900525e+08  1.17e+01 9.19e-11  1.40e+01     9s
  11   2.72653315e+08  2.77376415e+08  3.79e+00 8.03e-11  5.57e+00     9s
  12   2.72955655e+08  2.75534810e+08  1.76e+00 7.34e-11  2.95e+00     9s
  13   2.73163008e+08  2.74426893e+08  6.67e-01 8.21e-11  1.42e+00     9s
  14   2.73204305e+08  2.73986846e+08  5.27e-01 9.14e-11  8.75e-01     9s
  15   2.73304751e+08  2.73809816e+08  2.29e-01 9.98e-11  5.63e-01     9s
  16   2.73348071e+08  2.73707555e+08  1.17e-01 1.05e-10  4.01e-01     9s
  17   2.73372800e+08  2.73523241e+08  6.04e-02 8.37e-11  1.68e-01     9s
  18   2.73387000e+08  2.73481329e+08  3.17e-02 8.53e-11  1.05e-01     9s
  19   2.73394960e+08  2.73449557e+08  1.65e-02 9.30e-11  6.08e-02    10s
  20   2.73397630e+08  2.73436011e+08  1.17e-02 1.13e-10  4.27e-02    10s
  21   2.73401171e+08  2.73425231e+08  5.62e-03 9.32e-11  2.68e-02    10s
  22   2.73402608e+08  2.73419184e+08  3.18e-03 1.02e-10  1.85e-02    10s
  23   2.73403288e+08  2.73416273e+08  2.24e-03 1.14e-10  1.45e-02    10s
  24   2.73403758e+08  2.73414103e+08  1.63e-03 1.09e-10  1.15e-02    10s
  25   2.73404025e+08  2.73413043e+08  1.29e-03 1.27e-10  1.00e-02    10s
  26   2.73404232e+08  2.73410854e+08  1.00e-03 1.31e-10  7.37e-03    10s
  27   2.73404556e+08  2.73409481e+08  5.94e-04 1.20e-10  5.48e-03    11s
  28   2.73404640e+08  2.73408090e+08  4.98e-04 9.86e-11  3.84e-03    11s
  29   2.73404771e+08  2.73407150e+08  3.61e-04 9.96e-11  2.65e-03    11s
  30   2.73405011e+08  2.73406356e+08  1.41e-04 9.38e-11  1.50e-03    11s
  31   2.73405063e+08  2.73406055e+08  1.01e-04 1.10e-10  1.10e-03    11s
  32   2.73405079e+08  2.73405888e+08  8.70e-05 1.15e-10  9.01e-04    11s
  33   2.73405083e+08  2.73405776e+08  8.39e-05 1.16e-10  7.71e-04    11s
  34   2.73405110e+08  2.73405676e+08  5.99e-05 1.29e-10  6.30e-04    11s
  35   2.73405139e+08  2.73405507e+08  3.58e-05 1.02e-10  4.10e-04    12s
  36   2.73405160e+08  2.73405419e+08  2.27e-05 1.13e-10  2.88e-04    12s
  37   2.73405172e+08  2.73405350e+08  1.42e-05 1.17e-10  1.97e-04    12s
  38   2.73405178e+08  2.73405321e+08  1.03e-05 9.88e-11  1.59e-04    12s
  39   2.73405182e+08  2.73405283e+08  7.60e-06 9.89e-11  1.12e-04    12s
  40   2.73405187e+08  2.73405260e+08  4.93e-06 1.10e-10  8.16e-05    12s
  41   2.73405192e+08  2.73405251e+08  2.27e-06 1.03e-10  6.54e-05    12s
  42   2.73405194e+08  2.73405220e+08  1.39e-06 8.42e-11  2.89e-05    12s
  43   2.73405195e+08  2.73405207e+08  9.94e-07 7.48e-11  1.31e-05    13s
  44   2.73405197e+08  2.73405202e+08  2.80e-07 8.46e-11  6.53e-06    13s
  45   2.73405197e+08  2.73405199e+08  1.53e-07 6.53e-11  2.46e-06    13s
  46   2.73405197e+08  2.73405198e+08  9.68e-08 7.76e-11  1.28e-06    13s

Barrier solved model in 46 iterations and 12.88 seconds (15.98 work units)
Optimal objective 2.73405197e+08


Root crossover log...

   14212 DPushes remaining with DInf 0.0000000e+00                13s
       0 DPushes remaining with DInf 0.0000000e+00                13s

   11069 PPushes remaining with PInf 3.0251051e-01                13s
       0 PPushes remaining with PInf 0.0000000e+00                14s

  Push phase complete: Pinf 0.0000000e+00, Dinf 1.5858050e+05     14s


Root simplex log...

Iteration    Objective       Primal Inf.    Dual Inf.      Time
   24869    2.7340520e+08   0.000000e+00   1.585802e+05     14s
   27062    2.7340520e+08   0.000000e+00   0.000000e+00     14s
Crossover time: 1.17 seconds (1.21 work units)
Concurrent spin time: 0.25s

Solved with barrier

Root relaxation: objective 2.734052e+08, 27062 iterations, 8.55 seconds (8.99 work units)
Total elapsed time = 14.34s (DegenMoves)

    Nodes    |    Current Node    |     Objective Bounds      |     Work
 Expl Unexpl |  Obj  Depth IntInf | Incumbent    BestBd   Gap | It/Node Time

     0     0 2.7341e+08    0 7896 -4.580e+08 2.7341e+08   160%     -   15s
H    0     0                    1.406222e+08 2.7341e+08  94.4%     -   16s
H    0     0                    2.197686e+08 2.7341e+08  24.4%     -   16s
H    0     0                    2.349352e+08 2.7341e+08  16.4%     -   16s
H    0     0                    2.350777e+08 2.7341e+08  16.3%     -   16s
H    0     0                    2.414306e+08 2.7341e+08  13.2%     -   16s
H    0     0                    2.419818e+08 2.7341e+08  13.0%     -   17s
H    0     0                    2.419881e+08 2.7341e+08  13.0%     -   17s
H    0     0                    2.426110e+08 2.7341e+08  12.7%     -   19s
H    0     0                    2.435132e+08 2.7341e+08  12.3%     -   19s
H    0     0                    2.437620e+08 2.7341e+08  12.2%     -   21s
H    0     0                    2.566705e+08 2.7341e+08  6.52%     -   25s
H    0     0                    2.569255e+08 2.7341e+08  6.41%     -   27s
     0     0 2.7340e+08    0 8827 2.5693e+08 2.7340e+08  6.41%     -  499s
H    0     0                    2.569274e+08 2.7340e+08  6.41%     -  508s
H    0     0                    2.569531e+08 2.7340e+08  6.40%     -  525s
H    0     0                    2.569533e+08 2.7340e+08  6.40%     -  598s
H    0     0                    2.569819e+08 2.7340e+08  6.39%     -  598s
H    0     0                    2.569832e+08 2.7340e+08  6.39%     -  614s
H    0     0                    2.569834e+08 2.7340e+08  6.39%     -  614s
H    0     0                    2.571020e+08 2.7340e+08  6.34%     -  644s
H    0     0                    2.571238e+08 2.7340e+08  6.33%     -  644s
H    0     0                    2.571612e+08 2.7340e+08  6.32%     -  644s
H    0     0                    2.571615e+08 2.7340e+08  6.32%     -  667s
H    0     0                    2.571617e+08 2.7340e+08  6.32%     -  667s
H    0     0                    2.571619e+08 2.7340e+08  6.32%     -  706s
H    0     0                    2.571620e+08 2.7340e+08  6.32%     -  706s
H    0     0                    2.571636e+08 2.7340e+08  6.32%     -  706s
H    0     0                    2.571670e+08 2.7340e+08  6.31%     -  706s
H    0     0                    2.571706e+08 2.7340e+08  6.31%     -  744s
H    0     0                    2.571709e+08 2.7340e+08  6.31%     -  812s
H    0     0                    2.571710e+08 2.7340e+08  6.31%     -  812s
H    0     0                    2.571720e+08 2.7340e+08  6.31%     -  926s
H    0     0                    2.571720e+08 2.7340e+08  6.31%     - 1046s
H    0     0                    2.571759e+08 2.7340e+08  6.31%     - 1046s
H    0     0                    2.571759e+08 2.7340e+08  6.31%     - 1173s
H    0     0                    2.571763e+08 2.7340e+08  6.31%     - 1173s
H    0     0                    2.571771e+08 2.7340e+08  6.31%     - 1173s
H    0     0                    2.571773e+08 2.7340e+08  6.31%     - 1173s
H    0     0                    2.571792e+08 2.7340e+08  6.31%     - 1316s
H    0     0                    2.571810e+08 2.7340e+08  6.31%     - 1316s
     0     0 2.7340e+08    0 8711 2.5718e+08 2.7340e+08  6.31%     - 1323s
     0     0 2.7340e+08    0 9111 2.5718e+08 2.7340e+08  6.31%     - 1980s
H    0     0                    2.575918e+08 2.7340e+08  6.14%     - 1987s
H    0     0                    2.585863e+08 2.7340e+08  5.73%     - 1995s
H    0     0                    2.585890e+08 2.7340e+08  5.73%     - 2051s
H    0     0                    2.585949e+08 2.7340e+08  5.73%     - 2138s
H    0     0                    2.585949e+08 2.7340e+08  5.73%     - 2629s
H    0     0                    2.585954e+08 2.7340e+08  5.73%     - 2734s
H    0     0                    2.585956e+08 2.7340e+08  5.73%     - 2734s
H    0     0                    2.585956e+08 2.7340e+08  5.73%     - 2734s
     0     0 2.7340e+08    0 9075 2.5860e+08 2.7340e+08  5.73%     - 2834s
     0     0 2.7340e+08    0 8951 2.5860e+08 2.7340e+08  5.73%     - 2863s
     0     0 2.7340e+08    0 9229 2.5860e+08 2.7340e+08  5.73%     - 2879s
     0     0 2.7340e+08    0 9181 2.5860e+08 2.7340e+08  5.73%     - 2942s
     0     0 2.7340e+08    0 9181 2.5860e+08 2.7340e+08  5.73%     - 2944s
     0     0 2.7340e+08    0 9136 2.5860e+08 2.7340e+08  5.73%     - 2945s
     0     2 2.7340e+08    0 9136 2.5860e+08 2.7340e+08  5.73%     - 3181s
     1     3 2.7340e+08    1 8819 2.5860e+08 2.7340e+08  5.73% 106820 3317s

Cutting planes:
  MIR: 9
  Flow cover: 69
  RLT: 2905
  Relax-and-lift: 70

Explored 2 nodes (789604 simplex iterations) in 3600.17 seconds (5821.38 work units)
Thread count was 20 (of 20 available processors)

Solution count 10: 2.58596e+08 2.58596e+08 2.58595e+08 ... 2.57179e+08

Time limit reached
Best objective 2.585956245245e+08, best bound 2.734042214917e+08, gap 5.7265%
